NAME : ../src/system/instance/algorithm/realworld/DVRP/LKH/temp.16.tour
COMMENT : Length = 16
COMMENT : Found by LKH [Keld Helsgaun] Wed Nov  6 16:42:31 2019
TYPE : TOUR
DIMENSION : 3
TOUR_SECTION
1
3
2
-1
EOF
